n = 16;
m = 5;

G = 
[[0.   0.07 0.25 0.   0.   0.98 0.88 0.   0.57 0.31 0.05 0.   0.98 0.55 0.   0.  ]
 [0.07 0.   0.   1.   0.04 0.4  0.   0.   0.27 0.31 0.   0.2  0.   0.34 0.   0.33]
 [0.25 0.   0.   0.09 0.46 0.   0.   0.06 0.   0.43 0.   0.   0.65 0.   0.42 0.  ]
 [0.   1.   0.09 0.   0.   0.   0.74 0.36 0.41 0.82 0.   0.91 0.36 0.   0.11 0.57]
 [0.   0.04 0.46 0.   0.   0.   0.34 0.14 0.   0.   0.66 0.29 0.38 0.   0.   0.7 ]
 [0.98 0.4  0.   0.   0.   0.   0.   0.22 0.   0.   0.   0.05 0.17 0.   0.32 0.23]
 [0.88 0.   0.   0.74 0.34 0.   0.   0.94 0.   0.13 0.   0.   0.2  0.58 0.13 0.  ]
 [0.   0.   0.06 0.36 0.14 0.22 0.94 0.   0.   0.16 0.53 0.13 0.   0.03 0.49 0.54]
 [0.57 0.27 0.   0.41 0.   0.   0.   0.   0.   0.   0.   0.   0.34 0.   0.51 0.62]
 [0.31 0.31 0.43 0.82 0.   0.   0.13 0.16 0.   0.   0.   0.34 0.34 0.58 0.16 0.  ]
 [0.05 0.   0.   0.   0.66 0.   0.   0.53 0.   0.   0.   0.83 0.5  0.88 0.   0.12]
 [0.   0.2  0.   0.91 0.29 0.05 0.   0.13 0.   0.34 0.83 0.   0.03 0.04 0.12 0.  ]
 [0.98 0.   0.65 0.36 0.38 0.17 0.2  0.   0.34 0.34 0.5  0.03 0.   0.   0.83 0.89]
 [0.55 0.34 0.   0.   0.   0.   0.58 0.03 0.   0.58 0.88 0.04 0.   0.   0.55 0.17]
 [0.   0.   0.42 0.11 0.   0.32 0.13 0.49 0.51 0.16 0.   0.12 0.83 0.55 0.   0.04]
 [0.   0.33 0.   0.57 0.7  0.23 0.   0.54 0.62 0.   0.12 0.   0.89 0.17 0.04 0.  ]];

H = 
[[0.   0.   0.   0.15 0.36]
 [0.   0.   0.96 0.31 0.  ]
 [0.   0.96 0.   0.   0.1 ]
 [0.15 0.31 0.   0.   0.94]
 [0.36 0.   0.1  0.94 0.  ]];
